StudentsNr = 10;
InstructorsNr = 81;
DaysNr = 1;
SlotsPerDay = 40;
AvailabilitySlotsLenght = 10;
RoomNr = 2;
ProgrammNr = 2;
DegreeNr = 1;
RolesNr = 3;
CoursesNr = 6;
InstructorsProgramm = [{1, 2}, {1, 2}, {1}, {2}, {1}, {1, 2}, {1, 2}, {1}, {2}, {1, 2}, {2}, {2}, {1, 2}, {1, 2}, {1, 2}, {1, 2}, {2}, {1, 2}, {1}, {1, 2}, {1, 2}, {1}, {1}, {1}, {2}, {1}, {1}, {1, 2}, {1}, {2}, {1}, {1}, {2}, {1}, {2}, {1, 2}, {2}, {1, 2}, {1, 2}, {1, 2}, {2}, {1, 2}, {2}, {2}, {2}, {1}, {1}, {1}, {2}, {1, 2}, {1}, {1, 2}, {2}, {2}, {1}, {2}, {1}, {2}, {1}, {2}, {1}, {1}, {1}, {1}, {2}, {2}, {2}, {1}, {1}, {1}, {2}, {1}, {1}, {1}, {1}, {1}, {1}, {2}, {1}, {1}, {1}];
InstructorRolesPerProgramm = [|{3, 5, 19, 23, 24, 27, 28, 36, 38, 46, 48, 50, 52, 59, 61, 62, 68, 69, 72, 73, 79, 81}, {5, 10, 15, 18, 19, 21, 22, 28, 29, 31, 34, 38, 39, 40, 42, 46, 48, 57, 68, 69, 77}, {5, 7, 13, 14, 15, 19, 22, 24, 26, 27, 34, 36, 38, 39, 40, 42, 46, 55, 59, 70, 73, 79, 81}|{4, 11, 28, 30, 33, 36, 38, 41, 43, 45, 49, 50, 52, 56, 60, 78}, {4, 10, 15, 18, 21, 28, 35, 37, 38, 39, 40, 42, 44, 49, 53, 56, 58}, {4, 7, 13, 14, 15, 25, 30, 35, 36, 38, 39, 40, 42, 43, 44, 45, 67, 71, 78}|];
InstructorsAvailability = [|0, 1, 1, 1, |0, 1, 1, 1, |0, 1, 0, 0, |1, 1, 1, 1, |1, 1, 1, 0, |0, 0, 1, 1, |1, 1, 1, 1, |0, 1, 1, 1, |0, 0, 1, 1, |0, 1, 0, 1, |1, 1, 1, 0, |0, 1, 1, 0, |0, 0, 1, 0, |0, 0, 0, 0, |0, 0, 1, 1, |0, 1, 1, 1, |0, 0, 1, 1, |0, 0, 1, 1, |0, 1, 1, 1, |1, 1, 0, 1, |1, 1, 1, 1, |0, 0, 0, 1, |0, 0, 1, 1, |0, 0, 1, 1, |0, 1, 0, 1, |1, 1, 1, 1, |1, 0, 1, 0, |1, 0, 1, 1, |0, 1, 1, 1, |0, 1, 1, 1, |0, 0, 1, 1, |1, 1, 1, 1, |1, 1, 1, 0, |1, 1, 1, 1, |1, 1, 0, 1, |0, 1, 1, 1, |1, 1, 0, 1, |1, 1, 1, 1, |0, 0, 0, 1, |0, 1, 1, 1, |0, 1, 1, 1, |0, 0, 0, 0, |1, 1, 1, 1, |0, 1, 0, 1, |1, 1, 1, 1, |1, 0, 0, 0, |1, 1, 1, 1, |1, 1, 1, 1, |1, 1, 1, 0, |1, 1, 1, 1, |1, 0, 1, 1, |1, 1, 1, 1, |0, 0, 1, 1, |0, 1, 1, 1, |1, 1, 1, 1, |0, 1, 1, 0, |0, 0, 1, 0, |0, 1, 1, 0, |1, 1, 1, 1, |1, 1, 1, 1, |0, 1, 1, 1, |1, 1, 1, 1, |1, 1, 1, 1, |0, 0, 1, 1, |0, 1, 1, 1, |0, 0, 0, 0, |1, 1, 1, 1, |0, 0, 0, 0, |0, 1, 1, 1, |1, 1, 1, 1, |0, 1, 1, 1, |0, 1, 1, 1, |0, 1, 1, 1, |0, 1, 0, 1, |1, 0, 1, 1, |1, 1, 0, 0, |1, 1, 1, 1, |0, 1, 1, 1, |0, 1, 0, 1, |1, 1, 1, 0, |0, 1, 1, 1|];
StudentsProgramm = [1, 1, 1, 1, 2, 1, 1, 1, 1, 2];
StudentsDegree = [1, 1, 1, 1, 1, 1, 1, 1, 1, 1];
StudentsSupervisorId = [73, 68, 52, 26, 42, 22, 32, 73, 40, 65];
StudentsCourseIds = [{1, 2, 3, 4, 5, 6}, {1, 2, 3, 4, 5, 6}, {1, 2, 3, 4, 5, 6}, {1, 2, 3, 4, 5, 6}, {1, 2, 3, 4, 5, 6}, {1, 2, 3, 4, 5, 6}, {1, 2, 3, 4, 5, 6}, {1, 2, 3, 4, 5, 6}, {1, 2, 3, 4, 5, 6}, {1, 2, 3, 4, 5, 6}];
StudentsAvailability = [|1, 1, 1, 1, |0, 1, 1, 1, |1, 1, 1, 1, |1, 1, 1, 1, |0, 0, 0, 0, |0, 0, 1, 0, |0, 0, 1, 1, |0, 0, 1, 1, |0, 0, 0, 1, |1, 1, 1, 1|];
TheoryticalMinCard = [0, 0, 0, 0, 0, 0, 0, 0, 0, 0];
CoursesInstructorIds = [{22, 28, 33}, {2, 3, 4, 6, 7, 8, 11, 13, 14, 15, 16, 17, 19, 20, 22, 26, 27, 28, 29, 31, 32, 33, 35, 37, 38, 43, 46, 47, 48, 49, 50, 52, 53, 56, 57, 58, 59, 60, 64, 65, 66, 67, 68, 70, 71, 72, 74, 78, 80}, {5, 6, 7, 8, 11, 12, 20, 21, 23, 26, 27, 31, 32, 33, 34, 36, 39, 41, 46, 48, 49, 50, 56, 57, 58, 60, 61, 66, 76, 79, 81}, {6, 17, 26, 35, 60, 62}, {21, 42, 46, 52, 62, 63, 69}, {4, 5, 6, 12, 13, 15, 17, 18, 20, 21, 25, 29, 30, 34, 36, 37, 39, 43, 49, 51, 52, 55, 57, 58, 61, 63, 65, 67, 68, 69, 78, 80}];
RolesDemands = [1, 11, 1];
RolesContinuity = [2];
ExamLen = [2, 2, 2, 2, 2, 2, 2, 2, 2, 2];
LunchTsMinLen = 1;
LunchStarts = [17..25];
SupervisorAvailable = 0;
OptimalLunchLenght = [2, 2];
OptimalStartTs = [1, 1];
OptimalFinishTs = [0, 40];
MinimizeRooms = 300;
RolesSoftContinuity = [|1, 2, 3|1, 0, 4|];
SameDegreeInRoom = 20;
Mergeability = 0;
